17	4
23	15	22	11	
0	0	0	0	0	3	2	3	4	
4	1	3	0	1	1	6	
1	1	0	0	0	2	5	8	
8	7	4	0	0	1	15	
1	3	0	0	0	3	11	17	17	
250	1	0	8	0	3	7	10	14	
200	0	1	10	0	1	12	
100	9	5	8	0	2	9	17	
25	0	9	10	0	1	17	
250	0	4	6	7	2	16	17	
175	8	0	2	0	1	17	
225	1	2	0	4	2	13	17	
1	0	0	4	0	1	17	
4	9	3	0	0	3	17	17	17	
7	0	9	6	1	1	17	
10	0	6	0	0	3	17	17	17	
0	0	0	0	0	0	
